##TITLE=Urea
##JCAMP-DX=4.24
##DATA TYPE=INFRARED SPECTRUM
##ORIGIN=Pacific Northwest National Laboratory Under IARPA Contract
##OWNER=Public domain
##DATE=March 2017
##CAS REGISTRY NO=57-13-6
##MOLFORM=N H 2 C O N H 2
##$NIST SOURCE=IARPA-IR-S
##$NIST DOC FILE=META.MIR.PUR.Urea.SLD.ALFA-AESAR.PNNL511642.pdf
##$NIST PSD FILE=PSD.MIR.PUR.Urea.SLD.ALFA-AESAR.PNNL511642.txt
##SPECTROMETER/DATA SYSTEM=Bruker Tensor 37 FTIR
##APERTURE=6 mm
##EXTERNAL DIFFUSE REFLECTANCE ACCESSORY=A 562-G integrating sphere
##BEAMSPLITTER=Ge on KBr
"##DETECTOR (DIA. DET. PORT IN SPHERE)=2×2 mm, 60° field of view MCT"
##SPHERE DIAMETER=75 mm
"##ACQUISITION MODE=double-sided, forward-backward"
##SCANNER SPEED=40 kHz
##COADDED SCANS=2048
##PHASE RESOLUTION=32.00
##PHASE CORRECTION=Mertz
##ZEROFILLING=4×
"##SPECTRAL RANGE=7,500 to 600 cm-1 saved; 7500 to 600 cm-1 reported"
##STATE=solid
##RESOLUTION=0.96450084
##SPECTRAL RESOLUTION=4 cm-1
##WAVENUMBER ACCURACY=± 0.4 cm-1
##APODIZATION FUNCTION=Blackman-Harris 3-term
##LOW PASS FILTER=Open
##SWITCH GAIN ON=512 points
##XUNITS=1/cm
##YUNITS=Reflectance
##XLABEL=Wavenumber
##YLABEL=Diffuse-only reflectance
##XFACTOR=1
##YFACTOR=4.3596904e-010
##DELTAX=-0.96450084
##FIRSTX=7498.994
##LASTX=600.88402
##FIRSTY=0.4656837
##MAXX=7498.99
##MINX=600.882
##MAXY=0.46811819
##MINY=0.01860235
##NPOINTS=7153
##XYDATA=(X++(Y..Y))
7498.99+1068157731+1069770452+1070927903+1071667955+1072197121+1072720749
7493.21+1073323127+1073741825+1073658769+1072949751+1071775962+1070512897
7487.42+1069549789+1069107098+1069171013+1069542270+1069934034+1070061797
7481.63+1069701614+1068775831+1067288617+1065360010+1063186542+1060963650
7475.85+1058809459+1056746937+1054765967+1052920758+1051377216+1050366668
7470.06+1050068350+1050498396+1051474012+1052670086+1053749335+1054496360
7464.27+1054870898+1054946571+1054788389+1054384525+1053695058+1052771599
7458.48+1051830435+1051215274+1051267637+1052174622+1053864930+1056007158
7452.70+1058133596+1059847624+1060990789+1061639787+1061931132+1061867422
7446.91+1061273315+1059932458+1057784009+1055033114+1052119935+1049586831
7441.12+1047897617+1047258325+1047515012+1048213981+1048828458+1049019863
7435.34+1048760851+1048250075+1047705528+1047195093+1046602627+1045723123
7429.55+1044417060+1042737005+1040950995+1039429943+1038444277+1037997553
7423.76+1037822212+1037550965+1036942434+1036001817+1034930293+1033960828
7417.98+1033207241+1032615459+1032026343+1031291075+1030350732+1029221171
7412.19+1027910391+1026364730+1024516786+1022395476+1020177711+1018106849
7406.40+1016329862+1014792746+1013293501+1011655829+1009887455+1008201112
7400.61+1006881718+1006092448+1005765419+1005661377+1005554942+1005395188
7394.83+1005306937+1005437775+1005801786+1006272163+1006718478+1007138201
7389.04+1007650003+1008354851+1009200107+1009972015+1010424755+1010436650
7383.25+1010068948+1009477781+1008747025+1007778723+1006346674+1004284015
7377.47+1001655483+998765819+995991887+993573284+991518556+989670407+987847278
7370.72+985946424+983959986+981926038+979867618+977764217+975580222+973335319
7363.96+971163423+969307344+968041066+967567339+967955070+969137336+970939548
7357.21+973106863+975325585+977262942+978634903+979284585+979230992+978653975
7350.46+977802225+976865709+975882983+974759301+973389185+971799023+970195120
7343.71+968862670+967973527+967439713+966937276+966113758+964839891+963312824
7336.96+961910990+960902493+960234559+959569359+958528118+956945338+954955892
7330.21+952883663+951042692+949590546+948509110+947697349+947099688+946771497
7323.45+946825774+947295878+948032170+948733600+949108275+949038822+948624226
7316.70+948069084+947513464+946934465+946186277+945143601+943839656+942496132
7309.95+941421805+940842054+940769321+940992239+941187266+941080080+940558981
7303.20+939682006+938587649+937383577+936091459+934663581+933033223+931147477
7296.45+928982349+926562857+923990379+921445654+919139159+917237827+915820476
7289.70+914888609+914404355+914318086+914573406+915099359+915799422+916542892
7282.95+917180269+917594387+917751612+917697267+917478656+917065632+916349983
7276.19+915229036+913698277+911873234+909934783+908043363+906268085+904562191
7269.44+902805780+900913266+898943644+897119148+895721484+894938092+894771570
7262.69+895054302+895520850+895878572+895868182+895328694+894243566+892719848
7255.94+890897334+888856414+886602282+884131385+881518301+878953889+876706046
7249.19+875019430+874001499+873564754+873474589+873482177+873444101+873342657
7242.44+873209152+873037845+872767827+872333817+871733490+871056875+870451763
7235.69+870034637+869801397+869612795+869286518+868735957+868036031+867359484
7228.93+866842623+866489550+866169425+865685240+864866028+863646575+862101735
7222.18+860402198+858706216+857067724+855440648+853768318+852068439+850440133
7215.43+849007469+847859451+847019321+846435606+845993119+845559041+845047922
7208.68+844451423+843800715+843107079+842352808+841538586+840720809+839978638
7201.93+839336202+838717555+837972444+836951505+835577561+833874812+831935199
7195.18+829835080+827564064+825041009+822232897+819280549+816500738+814236763
7188.42+812664989+811712135+811135939+810688872+810234423+809750511+809245886
7181.67+808663948+807852939+806636152+804942221+802902053+800828183+799074985
7174.92+797873169+797246319+797051018+797094904+797249668+797492069+797851773
7168.17+798308956+798725466+798876744+798574667+797790113+796680581+795504126
7161.42+794481683+793697335+793089625+792528331+791920552+791270118+790640260
7154.67+790048957+789394216+788487710+787174674+785434874+783382401+781184119
7147.92+778988571+776922015+775120829+773730138+772844481+772438430+772357903
7141.16+772395706+772405344+772373352+772396321+772569679+772865057+773089547
7134.41+772971629+772322357+771161419+769716177+768294109+767118816+766241978
7127.66+765576710+765002632+764448448+763896450+763331738+762704683+761945148
7120.91+761006513+759894521+758659551+757371534+756096984+754891340+753810861
7114.16+752938055+752396722+752318520+752754170+753587737+754542437+755305936
7107.41+755696470+755744116+755630367+755541500+755551002+755610201+755641236
7100.66+755657095+755819379+756380605+757534296+759270883+761347897+763399892
7093.90+765106606+766298579+766947919+767094412+766793633+766125904+765233959
7087.15+764338185+763708259+763603259+764210627+765606241+767745940+770483915
7080.40+773604426+776855913+779985379+782770043+785035522+786651798+787526175
7073.65+787620100+786992566+785830261+784416055+783036437+781884249+781018554
7066.90+780397787+779949695+779628067+779427297+779358460+779415198+779564835
7060.15+779780097+780082311+780539495+781196423+781989590+782738529+783246299
7053.39+783436678+783407557+783350067+783401131+783547898+783653717+783575105
7046.64+783278222+782871761+782536392+782397282+782425720+782440553+782212303
7039.89+781594545+780590286+779315462+777909732+776471804+775054316+773690216
7033.14+772415256+771279201+770355059+769737300+769509734+769691226+770195441
7026.39+770839039+771393292+771651483+771488721+770902954+770014768+769005314
7019.64+768006865+767019286+765921512+764575595+762942230+761120331+759293237
7012.89+757626376+756172589+754824348+753341577+751460480+749036613+746131022
7006.13+742971205+739817061+736833610+734053594+731422600+728863862+726312027
6999.38+723718016+721049972+718303999+715518582+712778967+710195551+707852347
6992.63+705745324+703757723+701705797+699432867+696883425+694095480+691122760
6985.88+687950638+684468646+680517234+675982584+670888964+665433453+659927357
6979.13+654663250+649785097+645254959+640939263+636748253+632723013+629012224
6972.38+625759644+622977440+620484600+617961545+615105309+611794828+608150962
6965.63+604439353+600878748+597490065+594083404+590372546+586134847+581327036
6958.87+576109345+570775478+565626454+560848652+556455368+552317234+548256242
6952.12+544142546+539944393+535712880+531517974+527377447+523227760+518962341
6945.37+514514575+509921103+505313173+500845139+496621146+492671750+488973641
6938.62+485472030+482082732+478692101+475181056+471472557+467573439+463577422
6931.87+459615722+455776555+452041669+448290377+444378168+440232241+435882741
6925.12+431399395+426792148+421969708+416796621+411201555+405247606+399113565
6918.36+393004544+387057601+381301927+375690147+370166243+364710835+359328502
6911.61+354002325+348681174+343331960+338015696+332906115+328216632+324086667
6904.86+320515295+317385795+314552220+311924678+309505597+307362207+305553023
6898.11+304049778+302707758+301315494+299697578+297799904+295696469+293518079
6891.36+291357702+289211577+286982943+284541816+281816282+278871727+275925906
6884.61+273272679+271154411+269667641+268763561+268323382+268233746+268406233
6877.86+268753205+269170484+269559753+269872375+270129456+270389629+270678035
6871.10+270928536+270993562+270728262+270092491+269187916+268191706+267228411
6864.35+266271917+265147842+263632994+261588194+259046050+256206357+253340072
6857.60+250650255+248164507+245725704+243092882+240094443+236733975+233182462
6850.85+229667777+226339643+223196830+220116924+216965566+213716284+210502548
6844.10+207563000+205107877+203194582+201697404+200388983+199072170+197671430
6837.35+196235946+194871402+193651761+192558328+191472824+190230249+188710308
6830.59+186918128+185001826+183186968+181662481+180485223+179560670+178709142
6823.84+177776540+176722088+175630928+174651295+173906406+173447240+173271165
6817.09+173374796+173785872+174548380+175685153+177176298+178963641+180960334
6810.34+183050285+185093000+186954085+188556057+189910501+191101192+192228992
6803.59+193362057+194526788+195740550+197054868+198567067+200375978+202500244
6796.84+204814566+207065263+208975635+210379280+211286043+211836656+212191267
6790.09+212443785+212616032+212707632+212740000+212761345+212827893+212990416
6783.33+213290289+213750138+214353969+215032327+215672166+216156112+216416354
6776.58+216473536+216433427+216432384+216557036+216788807+217018527+217124209
6769.83+217058893+216889055+216762267+216831241+217178281+217776916+218506185
6763.08+219211323+219778582+220178105+220445336+220616063+220666802+220502997
6756.33+219997979+219052868+217647718+215867433+213894410+211964760+210296515
6749.58+209022649+208164899+207660958+207421685+207378653+207494163+207733367
6742.83+208026011+208253407+208281656+208025430+207496094+206791007+206028858
6736.07+205276484+204523238+203715681+202822402+201882110+201004554+200321684
6729.32+199914709+199760270+199735131+199685724+199518280+199247391+198968333
6722.57+198779133+198712022+198721489+198730444+198693257+198625548+198578329
6715.82+198581679+198605433+198576552+198441611+198219189+197989999+197830330
6709.07+197747018+197673327+197530286+197296687+197019526+196754072+196487353
6702.32+196119035+195530911+194695822+193729485+192828260+192132982+191631194
6695.56+191185581+190672394+190117611+189717609+189724155+190279331+191314710
6688.81+192574939+193737722+194551448+194916792+194887825+194612681+194259761
6682.06+193964776+193806833+193804030+193921659+194098230+194289959+194509357
6675.31+194821790+195286323+195877079+196450815+196803751+196791379+196424070
6668.56+195860690+195297739+194837991+194441784+193993333+193417701+192748981
6661.81+192098683+191557846+191115017+190655749+190048791+189264015+188438052
6655.06+187830513+187686601+188097608+188958434+190050636+191180693+192267393
6648.30+193324305+194371648+195360219+196166032+196654234+196763368+196548636
6641.55+196149848+195699671+195237651+194701120+194006834+193158193+192283953
6634.80+191572372+191160151+191071831+191253153+191658247+192311484+193298192
6628.05+194696437+196498495+198571066+200678465+202559614+204014802+204954907
6621.30+205389822+205379141+204990436+204288596+203343690+202230125+201011475
6614.55+199729970+198417019+197119381+195911567+194876871+194063076+193440874
6607.80+192897353+192276690+191454026+190402941+189216471+188067308+187128075
6601.04+186492766+186138547+185946237+185767752+185506963+185175748+184895101
6594.29+184838722+185144645+185837905+186799970+187803700+188604027+189043694
6587.54+189117966+188957682+188734576+188544794+188347528+187999308+187354001
6580.79+186358697+185084814+183686278+182323135+181098367+180035285+179097573
6574.04+178235244+177428354+176703153+176112874+175702790+175485990+175443026
6567.29+175536780+175726305+175974943+176253095+176535212+176787883+176956473
6560.53+176963822+176735640+176240551+175515675+174654952+173767091+172931045
6553.78+172174108+171481035+170826380+170209801+169677559+169311686+169189101
6547.03+169336022+169706048+170190302+170651040+170964294+171062765+170963064
6540.28+170752057+170524559+170308118+170039946+169627350+169046368+168392995
6533.53+167840604+167540287+167546354+167817943+168283552+168915444+169766477
6526.78+170950058+172571957+174650115+177074990+179647981+182180026+184582462
6520.03+186885248+189174977+191503927+193829631+196011165+197856152+199203094
6513.27+200008446+200390965+200593871+200877953+201416279+202262270+203399881
6506.52+204819368+206551785+208646026+211118735+213920950+216942341+220045027
6499.77+223102853+226018049+228710788+231102645+233125792+234763943+236092616
6493.02+237276077+238512586+239963894+241711675+243756031+246044786+248515991
6486.27+251139021+253935802+256961533+260251677+263775214+267436238+271120795
6479.52+274742974+278253780+281622707+284828650+287874068+290800201+293676569
6472.77+296563327+299467277+302315105+304962744+307250543+309088130+310517273
6466.01+311698582+312820213+313995813+315231023+316475973+317710773+318994995
6459.26+320456712+322242996+324464383+327152149+330239950+333578800+336985734
6452.51+340306536+343464200+346471885+349406358+352352315+355341680+358325200
6445.76+361201943+363894562+366416011+368874057+371405349+374085356+376876617
6439.01+379647917+382250166+384599692+386715261+388686147+390600194+392490144
6432.26+394339147+396132096+397901495+399726949+401691684+403832339+406115900
6425.50+408458248+410774723+413032478+415262820+417511893+419763974+421911158
6418.75+423815225+425425416+426854047+428345431+430156051+432427785+435126693
6412.00+438075760+441062561+443965657+446819603+449760604+452878005+456089330
6405.25+459150403+461797564+463901716+465512421+466781878+467859076+468838316
6398.50+469767756+470675561+471585998+472528392+473543657+474682959+475993637
6391.75+477502658+479206774+481069517+483026152+485013479+487027022+489163029
6385.00+491581666+494384616+497493985+500652572+503571219+506116081+508380979
6378.24+510585653+512884457+515235556+517426626+519230581+520576122+521613842
6371.49+522635670+523905674+525523727+527412310+529422708+531467525+533580427
6364.74+535869114+538414010+541189753+544059456+546837045+549379241+551655145
6357.99+553750137+555797005+557878188+559972463+561989834+563865770+565637460
6351.24+567441277+569439645+571733595+574316635+577088038+579913512+582704671
6344.49+585480312+588369702+591543669+595108376+599031419+603152908+607271526
6337.73+611245565+615046042+618737417+622406986+626086467+629712628+633158322
6330.98+636320327+639206367+641951110+644744661+647728865+650942754+654351671
6324.23+657915284+661624432+665478092+669434289+673393152+677236285+680892797
6317.48+684379096+687778169+691173483+694586569+697964178+701220450+704301449
6310.73+707226864+710086792+713000312+716060941+719295338+722654900+726045428
6303.98+729382705+732640959+735866811+739149401+742565701+746131979+749791705
6297.23+753449106+757031244+760533129+764009174+767512289+771030444+774472925
6290.47+777716071+780667941+783303925+785659706+787800841+789793705+791689978
6283.72+793528147+795348541+797209336+799180531+801314419+803616060+806044575
6276.97+808542474+811059992+813550851+815957354+818218116+820298275+822206374
6270.22+823973859+825615018+827107222+828409047+829495952+830387214+831149278
6263.47+831876274+832646951+833478194+834312035+835063982+835710519+836344821
6256.72+837143730+838264746+839751823+841520266+843417906+845308642+847120561
6249.97+848846962+850519976+852181505+853861217+855562531+857256189+858883744
6243.21+860371915+861654258+862689552+863471235+864024189+864393874+864632309
6236.46+864785023+864880178+864921125+864889407+864762396+864547818+864318747
6229.71+864222908+864443024+865112735+866234640+867660741+869160396+870539809
6222.96+871731166+872795513+873848512+874969870+876154596+877319362+878344128
6216.21+879122462+879606442+879832847+879917543+880012562+880241222+880641600
6209.46+881151283+881642167+881991823+882151167+882171196+882171059+882266693
6202.70+882508000+882867294+883286128+883743722+884289909+885012051+885953762
6195.95+887048734+888127641+889001061+889561877+889831415+889918641+889923837
6189.20+889858759+889639737+889162593+888410988+887524306+886766548+886400760
6182.45+886544451+887102190+887820983+888428009+888758046+888799539+888654208
6175.70+888451251+888269348+888094282+887825836+887330509+886519842+885413044
6168.95+884144920+882909471+881872742+881102543+880551708+880096370+879606989
6162.20+879011994+878323416+877615082+876972714+876449633+876051853+875750937
6155.44+875510314+875308314+875151089+875072339+875121694+875345433+875763584
6148.69+876349282+877016600+877629574+878038018+878125654+877842717+877200896
6141.94+876242300+875010885+873549374+871913821+870185915+868467717+866861080
6135.19+865438943+864223524+863185769+862270102+861430178+860645077+859900855
6128.44+859159367+858349930+857396940+856257399+854936912+853479434+851948470
6121.69+850412994+848934188+847546573+846247004+845004104+843785061+842578802
6114.94+841399954+840279007+839246720+838318066+837477594+836679779+835876016
6108.18+835056325+834269447+833597480+833098393+832761247+832506064+832222511
6101.43+831816323+831238486+830486608+829584272+828548977+827370198+826014028
6094.68+824454012+822705188+820831884+818923579+817058546+815281080+813603555
6087.93+812024398+810545798+809178826+807933534+806802128+805747966+804713903
6081.18+803647369+802526626+801370610+800227720+799154213+798196643+797383241
6074.43+796721870+796200907+795792805+795458462+795148319+794802218+794355698
6067.67+793757012+792990436+792087485+791114944+790142198+789210946+788325290
6060.92+787470121+786646739+785901286+785325295+785019253+785036069+785337600
6054.17+785798406+786261674+786617003+786850790+787038503+787284253+787646965
6047.42+788097039+788525581+788802776+788855275+788718763+788530092+788459068
6040.67+788619574+789014073+789544400+790074728+790503201+790799742+790996752
6033.92+791147141+791276749+791360899+791336495+791143928+790766656+790241387
6027.17+789635796+789019610+788453872+787996962+787701310+787591663+787642727
6020.41+787785187+787943506+788073661+788171140+788248523+788310592+788350651
6013.66+788366305+788376285+788425367+788573295+788871545+789335428+789927688
6006.91+790570534+791184670+791730036+792216956+792682480+793156275+793647091
6000.16+794154245+794686555+795268630+795933693+796709907+797606364+798597635
5993.41+799609209+800517082+801172370+801446899+801281197+800711837+799863504
5986.66+798907984+798007562+797271543+796747231+796445632+796373718+796546119
5979.91+796969397+797621608+798450186+799392375+800400941+801454692+802547407
5973.15+803664048+804762916+805780915+806663564+807400609+808034637+808628812
5966.40+809214441+809761654+810200039+810471765+810571090+810543473+810453103
5959.65+810352069+810271132+810225878+810220273+810241532+810253427+810201474
5952.90+810037071+809750580+809392174+809060019+808853028+808818029+808930411
5946.15+809125712+809356149+809622475+809957433+810379344+810861205+811341152
5939.40+811763541+812113128+812415753+812705936+812986480+813211928+813311937
5932.64+813240638+813016558+812719402+812443643+812240276+812091322+811935190
5925.89+811725260+811480262+811293916+811292617+811564480+812100140+812783318
5919.14+813439768+813918416+814154049+814179136+814081520+813940769+813780878
5912.39+813568829+813258958+812855505+812447471+812183333+812197141+812536269
5905.64+813142065+813893875+814677062+815428052+816134335+816807874+817459129
5898.89+818085842+818677419+819225452+819731375+820201684+820633575+821004900
5892.14+821286948+821475824+821615686+821785626+822053592+822433394+822880939
5885.38+823332039+823749642+824145645+824565573+825050100+825600184+826164417
5878.63+826656532+826993610+827133062+827084663+826894011+826613398+826286506
5871.88+825955103+825673396+825506874+825507489+825681462+825978276+826316447
5865.13+826631103+826910964+827198413+827549435+827982078+828447601+828845655
5858.38+829072127+829070555+828855430+828499349+828094802+827713359+827377513
5851.63+827054791+826675536+826168040+825497235+824685338+823800638+822919220
5844.88+822084012+821285786+820475119+819594384+818608445+817520036+816368122
5838.12+815212653+814112760+813105151+812194885+811364257+810593375+809877453
5831.37+809227635+808656018+808158230+807707403+807263208+806786747+806250062
5824.62+805636883+804938120+804147824+803262509+802280056+801198893+800019225
5817.87+798747956+797403476+796013809+794608762+793211303+791836608+790497049
5811.12+789207938+787990400+786872597+785890212+785080502+784465068+784029964
5804.37+783716676+783435584+783095704+782633394+782029512+781309762+780529925
5797.61+779749746+779007096+778308674+777646072+777025784+776486365+776086397
5790.86+775870725+775837913+775930266+776047843+776080929+775945988+775612056
5784.11+775104765+774485503+773818457+773145602+772482453+771835368+771226428
5777.36+770708747+770358135+770238644+770361758+770668620+771055395+771424122
5770.61+771720936+771935104+772066353+772096362+771984869+771689012+771183089
5763.86+770468397+769576110+768565357+767518783+766530042+765684443+765039068
5757.11+764610253+764376603+764300588+764358009+764553584+764903717+765394055
5750.35+765947625+766436390+766737647+766796709+766651242+766401459+766147984
5743.60+765940379+765765380+765576573+765340052+765064634+764797488+764590224
5736.85+764460752+764377286+764276115+764101117+763838004+763520067+763201515
5730.10+762915775+762648629+762343817+761936330+761388366+760706145+759927060
5723.35+759090963+758214125+757283830+756276836+755188837+754055380+752949061
5716.60+751953552+751128735+750484863+749974770+749507400+748979329+748313924
5709.84+747489312+746537552+745512922+744451241+743350049+742183506+740936437
5703.09+739631262+738330667+737118734+736072161+735235859+734610171+734153534
5696.34+733798821+733474526+733122410+732707882+732221304+731669375+731055992
5689.59+730363996+729555174+728596579+727495318+726311070+725126754+723997467
5682.84+722916167+721823725+720654311+719381060+718031452+716665506+715336885
5676.09+714062198+712816701+711555959+710249554+708907397+707582604+706350573
5669.34+705273785+704368441+703590860+702850124+702046019+701114699+700055547
5662.58+698919766+697766416+696614638+695429570+694155977+692775198+691342739
5655.83+689975426+688794528+687861430+687145303+686537935+685901788+685125643
5649.08+684160963+683024361+681768952+680443064+679061533+677605559+676048208
5642.33+674387705+672671078+670995057+669480158+668222629+667243868+666470388
5635.58+665766156+665003818+664130671+663183150+662245472+661387091+660624616
5628.83+659924622+659233036+658507613+657737414+656946639+656182798+655495929
5622.08+654917135+654447646+654060325+653708278+653336201+652896243+652367078
5615.32+651765247+651136209+650524603+649946356+649385882+648819119+648239915
5608.57+647662488+647101468+646552546+645997131+645426472+644860392+644338405
5601.82+643889697+643507845+643154293+642788232+642399202+642016666+641689364
5595.07+641448605+641281809+641132445+640928326+640620096+640208713+639743462
5588.32+639294345+638917551+638636939+638449977+638347097+638324949+638382575
5581.57+638507193+638665239+638808724+638894514+638902854+638842767+638740365
5574.81+638618687+638484909+638335203+638174081+638031074+637958136+638002364
5568.06+638169501+638405271+638610894+638690532+638601802+638377859+638104902
5561.31+637871867+637726673+637666927+637665970+637709310+637813625+638017266
5554.56+638354617+638833197+639426073+640079241+640729060+641320295+641819724
5547.81+642220170+642533595+642779072+642971023+643112868+643198795+643221695
5541.06+643186695+643119772+643064128+643059138+643114509+643200572+643267701
5534.31+643285542+643271187+643283081+643382338+643590081+643872950+644163885
5527.55+644402457+644565219+644672269+644771389+644913029+645129384+645424694
5520.80+645777563+646152852+646516111+646843823+647125325+647359454+647546483
5514.05+647682722+647756618+647750739+647649705+647450644+647170373+646842798
5507.30+646507840+646198926+645935540+645723012+645555670+645419636+645292830
5500.55+645144833+644936954+644626400+644175642+643564446+642800742+641921442
5493.80+640979185+640020589+639069103+638124384+637179597+636243355+635348401
5487.05+634539580+633851685+633294835+632859868+632536189+632322226+632220166
5480.29+632219756+632289003+632382313+632457918+632491140+632474802+632410408
5473.54+632300009+632144083+631945842+631716635+631479430+631263895+631094501
5466.79+630977950+630901798+630848068+630810129+630797072+630819494+630870900
5460.04+630924151+630948624+630934268+630902960+630899474+630971456+631149257
5453.29+631433629+631796273+632193506+632589440+632976078+633373926+633813746
5446.54+634313039+634867361+635458459+636069313+636691652+637325475+637975430
5439.78+638648833+639352518+640087307+640845817+641614853+642381224+643134743
5433.03+643867823+644576498+645264051+645942239+646623776+647311192+647991636
5426.28+648645146+649260307+649844980+650424321+651024511+651652182+652281288
5419.53+652860834+653344814+653727281+654053968+654395352+654799694+655263714
5412.78+655746259+656210483+656656661+657120886+657643899+658241013+658891516
5406.03+659549948+660165245+660695710+661115091+661412793+661591415+661667498
5399.28+661673104+661652459+661646307+661670369+661703523+661701541+661629764
5392.52+661493799+661342931+661244289+661242785+661334728+661469668+661579589
5385.77+661617118+661580273+661508769+661454561+661446426+661471924+661486074
5379.02+661439385+661304103+661084124+660805699+660499862+660187599+659876566
5372.27+659565055+659247802+658916056+658553686+658136082+657636380+657037625
5365.52+656341117+655564834+654734070+653870493+652987707+652094736+651203201
5358.77+650333814+649518020+648791571+648183929+647707742+647355899+647107962
5352.02+646941986+646843960+646808413+646830835+646897075+646976986+647030511
5345.26+647023949+646945473+646808003+646633346+646429364+646179649+645854603
5338.51+645438503+644952403+644453384+644008437+643657414+643388217+643144792
5331.76+642866161+642532707+642185444+641901482+641742274+641712333+641756493
5325.01+641794363+641763534+641644042+641453116+641218645+640950542+640626385
5318.26+640199006+639622809+638880911+637994913+637010956+635976277+634925192
5311.51+633881558+632867182+631904006+631005977+630170085+629376166+628594415
5304.75+627795642+626958999+626074846+625141817+624161415+623133230+622056305
5298.00+620933717+619772096+618573356+617325603+616004979+614591524+613084417
5291.25+611500202+609854327+608142623+606341641+604427732+602397475+600271106
5284.50+598075968+595827169+593521563+591153340+588736310+586313059+583939778
5277.75+581653107+579445118+577266249+575057098+572785090+570460139+568119739
5271.00+565796770+563493112+561174040+558782644+556265331+553595680+550786919
5264.25+548123865+545729838+543082745+540028132+536607834+533066301+529685616
5257.49+526560456+523518011+520262320+516623889+512700299+508775990+505107994
5250.74+501758276+498588785+495394618+492054436+488594250+485146881+481856020
5243.99+478789068+475891065+472983696+469812087+466146927+461910937+457252216
5237.24+452487915+447935253+443752685+439920832+436357527+433027496+429919973
5230.49+426921517+423751548+420073845+415716757+410811910+405733535+400892432
5223.74+396540027+392687804+389136222+385565876+381661802+377250540+372388554
5216.99+367330891+362378842+357713217+353335314+349143347+345044383+340991799
5210.23+336939421+332799304+328474413+323942703+319291604+314652092+310085416
5203.48+305529986+300861182+296005588+291007465+285994594+281091610+276366017
5196.73+271849534+267585859+263633592+260006337+256614647+253288170+249880159
5189.98+246367354+242845884+239419656+236079764+232684041+229056649+225122839
5183.23+220976194+216840555+212969002+209543936+206618128+204101806+201795277
5176.48+199463849+196933394+194164298+191261083+188408470+185772042+183416551
5169.72+181279877+179201240+176989730+174511962+171775303+168957519+166335138
5162.97+164126722+162352144+160830597+159324482+157697627+155941148+154069740
5156.22+152033947+149763956+147290256+144781949+142447086+140404465+138662623
5149.47+137189738+135951624+134866915+133776036+132522780+131081537+129565920
5142.72+128079389+126577384+124922768+123092461+121298862+119867455+118971271
5135.97+118478276+118036567+117302000+116118658+114557813+112846937+111257578
5129.22+109992419+109109283+108521602+108075313+107630306+107072994+106273187
5122.46+105079454+103411517+101382174+100453811+99472887+98556563+97717074
5115.71+96970032+96322802+95765653+95274426+94822745+94390675+93961578+93511547
5108.00+93007247+92420925+91754016+91047861+90366965+89763006+89244889+88776879
5100.28+88305468+87795751+87253102+86717673+86237478+85837681+85505979+85202722
5092.56+84888186+84546161+84187354+83833153+83497512+83181591+82881641+82597218
5084.85+82331532+82087047+81863702+81660710+81476706+81306552+81138697+80958478
5077.13+80754520+80523032+80268592+80003548+79746143+79515261+79321301+79161222
5069.42+79023940+78902689+78801996+78732544+78699877+78698869+78718001+78746139
5061.70+78774012+78790179+78778165+78719445+78601363+78424442+78203857+77961867
5053.98+77713682+77455824+77168460+76834399+76462903+76098269+75803156+75626679
5046.27+75579084+75629840+75728405+75831918+75921929+76001729+76080402+76156511
5038.55+76214428+76234611+76208532+76145018+76062628+75974753+75880598+75769993
5030.84+75637847+75496207+75372145+75292020+75263787+75272179+75291054+75303743
5023.12+75315347+75349339+75432027+75576606+75775521+76002900+76224126+76408225
5015.40+76537662+76611567+76640739+76637987+76609892+76555025+76468919+76352581
5007.69+76219452+76096295+76015350+76001635+76062791+76188503+76359348+76558119
4999.97+76776371+77013106+77268538+77537017+77803599+78047033+78249110+78404815
4992.26+78526493+78639097+78769748+78937988+79149661+79395137+79652953+79899343
4984.54+80119288+80310017+80472686+80600884+80679693+80699381+80670960+80627236
4976.82+80606823+80634670+80713898+80832227+80974858+81134245+81312380+81514662
4969.11+81737751+81960319+82145716+82258918+82287082+82247673+82178751+82119936
4961.39+82098309+82124662+82196960+82305795+82440189+82593270+82764705+82957195
4953.68+83169372+83390966+83604399+83789874+83929932+84011382+84027232+83979954
4945.96+83883482+83760625+83635297+83523778+83430264+83349378+83274311+83205953
4938.24+83158016+83154026+83215728+83348165+83531323+83725967+83892796+84012595
4930.53+84093036+84157234+84223456+84291559+84345255+84366224+84348946+84307751
4922.81+84273068+84279331+84349134+84480656+84646033+84803592+84917409+84972344
4915.10+84975805+84946906+84900918+84838455+84745196+84603574+84410811+84192285
4907.38+83998599+83885063+83884969+83995505+84184535+84412093+84649195+84883025
4899.66+85109711+85324477+85517360+85675944+85790932+85859923+85888463+85889215
4891.95+85882038+85894035+85957113+86100333+86339204+86668241+87063705+87495690
4884.23+87941449+88390891+88840162+89280743+89693272+90052087+90336528+90541314
4876.52+90679672+90778100+90866591+90969163+91098626+91258449+91449614+91677130
4868.80+91950864+92279670+92664444+93095190+93553228+94015624+94459136+94864350
4861.08+95219218+95520133+95768498+95965508+96110104+96202337+96246352+96248189
4853.37+96209840+96126416+95991681+95808069+95592910+95375555+95185936+95040622
4845.65+94934128+94842014+94736383+94604860+94458290+94320479+94207858+94116223
4837.94+94024426+93910523+93766337+93602566+93443931+93319655+93252834+93252125
4830.22+93309153+93402574+93505335+93591253+93640454+93646171+93620408+93591415
4822.50+93589997+93632174+93713145+93817256+93935431+94074618+94252454+94483335
4814.79+94767554+95089644+95425422+95753220+96063082+96358588+96650463+96946013
4807.07+97243741+97537385+97825457+98116649+98425682+98762246+99123070+99494472
4799.36+99863925+100232396+100616385+101037270+101504639+102006324+102512897
4792.60+102993827+103435143+103848013+104264327+104722228+105248779+105849627
4785.85+106512468+107222135+107975304+108781280+109647164+110559985+111483264
4779.10+112371630+113192303+113936739+114616328+115248784+115846299+116412532
4772.35+116947987+117458892+117963055+118487128+119055566+119677768+120342924
4765.60+121027102+121707221+122370917+123016377+123644287+124251074+124828381
4758.85+125369108+125874211+126355944+126835225+127333860+127865136+128427122
4752.10+129004181+129576174+130129743+130663087+131180512+131682061+132158308
4745.34+132595608+132987492+133341924+133677864+134014010+134358786+134709288
4738.59+135058259+135400993+135734918+136051086+136326794+136529743+136635964
4731.84+136650276+136612243+136578918+136593282+136660855+136752054+136828069
4725.09+136870067+136888806+136907818+136934726+136945415+136895642+136751772
4718.34+136517472+136235176+135961877+135737942+135571506+135446409+135343076
4711.59+135254372+135185407+135140948+135112579+135075828+134999172+134857951
4704.84+134644680+134370049+134055991+133725348+133392313+133057457+132708648
4698.08+132329393+131910627+131458673+130993243+130536085+130099264+129682352
4691.33+129278702+128883374+128496164+128118268+127747858+127378284+126999175
4684.58+126598575+126164967+125689455+125167535+124600960+123999283+123380209
4677.83+122766859+122182092+121642861+121159017+120735979+120376506+120076231
4671.08+119816280+119562070+119273835+118923881+118507456+118038472+117532634
4664.33+116991361+116398425+115733422+114992224+114199783+113404224+112654029
4657.57+111973568+111353895+110765155+110181721+109603611+109060150+108593610
4650.82+108230778+107959206+107724068+107451411+107085495+106615622+106073015
4644.07+105500040+104915385+104301352+103621421+102853111+102011374+101146379
4637.32+100316990+99558285+98863511+98192980+97503966+96781370+96048470
4630.57+95351125+94727325+94184283+93697594+93231481+92764590+92303527+91875054
4622.85+91503267+91188313+90902462+90606759+90276090+89914754+89552435+89225902
4615.14+88960286+88762293+88625926+88542571+88505503+88505691+88525344+88538033
4607.42+88518602+88455200+88351593+88217114+88053891+87856650+87627802+87393886
4599.70+87204866+87111761+87137635+87264526+87447035+87642439+87836125+88045286
4591.99+88299367+88611382+88960260+89297004+89571636+89763023+89890581+89999810
4584.27+90131742+90297170+90472776+90619345+90708434+90740435+90744886+90764634
4576.56+90833813+90960516+91123193+91282605+91403600+91473309+91504754+91523399
4568.84+91547718+91577787+91599124+91596799+91567465+91520930+91472344+91432183
4561.12+91400387+91367797+91321826+91252280+91153288+91021261+90852851+90647099
4553.41+90411577+90166614+89940722+89757478+89622674+89521682+89429355+89325262
4545.69+89202848+89067336+88926636+88783894+88637991+88490003+88347970+88224224
4537.98+88127018+88053634+87990650+87920736+87829606+87708311+87550992+87351615
4530.26+87103387+86801395+86447288+86053379+85642295+85241370+84875223+84562174
4522.54+84316903+84153525+84082851+84104435+84201462+84346032+84511162+84679017
4514.83+84839463+84982846+85096501+85168021+85191921+85172841+85124759+85067209
4507.11+85020375+84999107+85008626+85044711+85099090+85165885+85244241+85336568
4499.40+85445379+85571398+85712414+85862683+86012962+86153345+86277160+86382347
4491.68+86467975+86529404+86557568+86545118+86495250+86425840+86365035+86340674
4483.96+86370444+86458456+86598763+86782793+87005327+87265440+87562459+87889061
4476.25+88226266+88544476+88811033+89001780+89110684+89153075+89160158+89166584
4468.53+89195739+89249093+89306506+89338182+89322998+89261842+89178350+89105779
4460.82+89068848+89070497+89091278+89102062+89083417+89040522+89003266+89010820
4453.10+89090227+89243291+89449034+89677515+89904500+90119523+90325428+90531795
4445.38+90745502+90963318+91172231+91358578+91520972+91677198+91860032+92103859
4437.67+92431221+92845672+93334660+93878890+94462691+95077416+95716016+96364202
4429.95+96997923+97591422+98130688+98619684+99073868+99505571+99913400
4423.20+100284349+100607515+100889436+101157325+101445073+101769999+102117416
4416.45+102446888+102716513+102907490+103032176+103123743+103218266+103341098
4409.70+103500998+103691036+103894463+104094549+104283963+104467925+104658766
4402.95+104866551+105091203+105320368+105533596+105712303+105851601+105965940
4396.19+106082534+106224857+106399506+106595738+106796576+106989827+107171071
4389.44+107340259+107497750+107641910+107767357+107864469+107922916+107939706
4382.69+107925573+107903374+107898307+107926470+107988378+108070545+108153575
4375.94+108222729+108274682+108315440+108351893+108384415+108408819+108424584
4369.19+108439349+108463736+108501171+108543853+108578930+108598284+108603470
4362.44+108602436+108602829+108606794+108609802+108603077+108578007+108530549
4355.69+108463113+108382970+108298863+108217756+108142954+108073382+108005724
4348.93+107940185+107887796+107872569+107924223+108064948+108298795+108612092
4342.18+108982947+109391852+109825410+110272348+110716714+111135874+111505259
4335.43+111807576+112040414+112218104+112367725+112521113+112706332+112939948
4328.68+113222492+113539463+113867970+114186300+114481063+114749200+114994429
4321.93+115221577+115432002+115622381+115788314+115930526+116060373+116199603
4315.18+116373790+116602595+116892180+117232727+117602181+117974181+118328057
4308.43+118655581+118960444+119249961+119525114+119776760+119990560+120157228
4301.67+120280145+120375908+120467175+120571909+120693981+120821239+120933775
4294.92+121018412+121079884+121140578+121228496+121363068+121548355+121776656
4288.17+122037958+122327654+122647701+123001099+123383003+123773930+124141572
4281.42+124451545+124682153+124832996+124921947+124974404+125012429+125049915
4274.67+125092528+125139414+125184855+125221436+125243618+125249446+125238620
4267.92+125210105+125162972+125100535+125032937+124975438+124943344+124948761
4261.16+124999953+125101065+125249079+125430306+125619746+125786293+125901213
4254.41+125946424+125919311+125831615+125702870+125550840+125384660+125205201
4247.66+125011677+124808933+124610684+124437002+124308854+124241461+124239419
4240.91+124295063+124392961+124518041+124662526+124826826+125014821+125228460
4234.16+125464665+125714841+125966009+126203872+126418749+126610965+126791484
4227.41+126975967+127175934+127392879+127617942+127836946+128038451+128221969
4220.66+128401641+128601078+128839608+129118341+129416778+129703569+129954617
4213.90+130165871+130352422+130535436+130725841+130915212+131079469+131192321
4207.15+131239549+131224364+131161286+131063730+130935719+130773367+130573905
4200.40+130344715+130104562+129875602+129671090+129488025+129310378+129121118
4193.65+128914059+128696567+128480844+128270760+128054438+127808689+127512541
4186.90+127161117+126770951+126372778+125997069+125660479+125361033+125082915
4180.15+124806524+124517648+124211870+123893224+123568913+123244192+122921256
4173.40+122602884+122296687+122014195+121764864+121550329+121365316+121204177
4166.64+121066443+120956410+120878054+120830365+120806218+120794315+120782523
4159.89+120761784+120728596+120684308+120630194+120564022+120482291+120387768
4153.14+120293817+120220049+120181264+120178718+120200832+120231243+120257877
4146.39+120277719+120295791+120320238+120355887+120400158+120443737+120475575
4139.64+120487683+120475985+120437798+120370131+120272370+120150255+120016460
4132.89+119885305+119765498+119656918+119554457+119455294+119364001+119291498
4126.13+119248970+119240989+119261198+119292779+119313612+119304135+119254481
4119.38+119166076+119046850+118903860+118739902+118556333+118358981+118161099
4112.63+117980555+117833755+117729550+117666335+117633762+117619518+117618125
4105.88+117635070+117680853+117758064+117851622+117930645+117960577+117915572
4099.13+117783913+117566053+117270367+116909424+116497836+116051658+115588758
4092.38+115128745+114689976+114284950+113919145+113595432+113319809+113100437
4085.63+112939392+112824823+112731676+112631991+112506750+112351806+112176038
4078.87+111993529+111814617+111640772+111466448+111287211+111106035+110930652
4072.12+110763805+110596429+110411031+110192667+109936339+109645857+109327074
4065.37+108982810+108612323+108213509+107786096+107334851+106870549+106405239
4058.62+105943441+105476798+104988580+104466430+103912356+103341902+102773994
4051.87+102220193+101680663+101147687+100613087+100075017+99540050+99019233
4045.12+98519632+98038181+97562413+97077971+96576260+96056434+95522082+94977390
4037.40+94426657+93876711+93337932+92821960+92336852+91883428+91455946+91046648
4029.68+90650910+90269075+89904090+89557733+89229525+88919202+88629532+88365727
4021.97+88132179+87929409+87754582+87604978+87480890+87385265+87319666+87279155
4014.25+87250487+87216060+87163415+87093612+87022485+86972779+86962508+86997670
4006.54+87073113+87178599+87304294+87442584+87587479+87733732+87876149+88008680
3998.82+88123711+88213141+88272280+88303819+88319576+88338041+88379578+88460754
3991.10+88589824+88763754+88968908+89185733+89396919+89594553+89782317+89971432
3983.39+90172621+90389703+90618867+90853423+91090756+91334746+91591502+91860263
3975.67+92127136+92368391+92562538+92702546+92798291+92867051+92919645+92954491
3967.96+92964702+92951210+92930266+92927147+92961925+93038811+93147117+93270958
3960.24+93398396+93522399+93636626+93733217+93806823+93861253+93911232+93975002
3952.52+94061476+94161639+94251001+94303945+94310140+94281421+94242430+94210772
3944.81+94181899+94130587+94027912+93861022+93641010+93395875+93154919+92935752
3937.09+92740118+92558753+92380414+92199348+92016078+91832415+91645223+91446154
3929.38+91228269+90993413+90753371+90523122+90312329+90121907+89947763+89787017
3921.66+89642028+89518786+89421537+89346043+89276479+89187989+89055706+88864566
3913.94+88614937+88320541+88001460+87676824+87361134+87064414+86794508+86559704
3906.23+86369641+86233487+86156122+86134743+86158891+86213689+86284705+86361498
3898.51+86439692+86521996+86618467+86744187+86913486+87132773+87396433+87689419
3890.80+87994829+88301845+88607734+88912759+89212068+89490989+89728066+89905466
3883.08+90020522+90090684+90147388+90221865+90331418+90474613+90636273+90797138
3875.36+90941341+91059909+91151980+91224714+91291646+91368370+91466978+91592741
3867.65+91744796+91919991+92116745+92336698+92583687+92859848+93160396+93469916
3859.93+93763449+94014360+94204995+94334450+94417925+94478038+94533477+94591718
3852.22+94649951+94702895+94751823+94807766+94885935+94995531+95132351+95280023
3844.50+95419048+95537266+95635438+95724415+95816486+95917178+96023152+96127219
3836.78+96225041+96317829+96409276+96500843+96590299+96674295+96751686+96824035
3829.07+96892590+96954891+97003631+97029846+97029530+97008954+96984114+96972049
3821.35+96979987+97000349+97016961+97017413+97001887+96982781+96977022+96997188
3813.64+97046594+97119422+97204452+97290370+97370290+97442058+97505666+97560276
3805.92+97603718+97633446+97647511+97645007+97627917+97603855+97585689+97585689
3798.20+97607068+97641615+97676384+97704924+97733429+97776435+97845614+97941154
3790.49+98051460+98161808+98265645+98370106+98491263+98641755+98820206+99011662
3782.77+99199042+99375792+99548236+99726165+99910102+100086972+100237643
3776.02+100350614+100431508+100501927+100588178+100708182+100865074+101051395
3769.27+101260077+101492574+101758028+102064079+102407343+102770670+103129340
3762.52+103461222+103754550+104008810+104228849+104416639+104567951+104677342
3755.77+104748076+104797645+104852401+104934611+105052435+105200885+105371953
3749.01+105564426+105785609+106044134+106340785+106664524+106996568+107319410
3742.26+107624273+107910808+108180321+108428890+108647305+108827909+108971591
3735.51+109087904+109187639+109275557+109349692+109406780+109448120+109480275
3728.76+109511634+109549112+109598193+109663724+109748643+109850121+109956154
3722.01+110047106+110102152+110107774+110062657+109975218+109855829+109709191
3715.26+109533535+109327330+109097380+108860807+108637667+108439332+108260967
3708.51+108083200+107881627+107637526+107344224+107007044+106638351+106250800
3701.75+105851576+105439620+105008720+104555082+104085398+103618182+103175627
3695.00+102770875+102399516+102042384+101676852+101288523+100875080+100441788
3688.25+99993132+99527224+99037305+98518855+97976658+97424875+96878876+96344959
3680.54+95818229+95291029+94763632+94245917+93747068+93263071+93047937+92459411
3672.82+91880377+91316622+90699975+89956778+89094286+88220208+87472679+86919203
3665.10+86508896+86114808+85632776+85060331+84494465+84050765+83769067+83581191
3657.39+83361999+83012660+82502857+81849364+81076354+80211205+79312304+78477335
3649.67+77799908+77306246+76935459+76584864+76180658+75718886+75255892+74864606
3641.96+74584352+74389248+74195109+73907173+73483382+72965872+72454779+72042413
3634.24+71758536+71562030+71373740+71119180+70756836+70288339+69754380+69218724
3626.52+68742840+68359899+68059261+67789927+67486123+67107471+66673589+66266427
3618.81+65989617+65906582+65999482+66176074+66314112+66311886+66122058+65765105
3611.09+65324293+64917614+64645738+64536142+64522611+64481895+64306585+63962569
3603.38+63494256+62986606+62521642+62158495+61932423+61853384+61896437+61998945
3595.66+62081565+62086978+62009609+61891276+61786909+61728419+61715530+61734820
3587.94+61781496+61856985+61940708+61967060+61842074+61500122+60960981+60336967
3580.23+59777891+59391719+59198332+59141816+59138693+59120390+59050549+58926824
3572.51+58780711+58669671+58646689+58715821+58809289+58820026+58677194+58406028
3564.80+58115960+57920808+57854270+57845990+57773918+57550487+57183512+56777473
3557.08+56476259+56375472+56450868+56554384+56499744+56192177+55703612+55222661
3549.36+54913692+54804536+54795726+54764759+54655556+54476986+54242959+53942018
3541.65+53572449+53191990+52913368+52838613+52987456+53275413+53551096+53663580
3533.93+53524329+53139003+52597337+52027019+51540749+51205496+51039474+51018094
3526.22+51077528+51130993+51109776+51005478+50867513+50747547+50640775+50485648
3518.50+50223428+49855721+49445714+49069723+48774058+48569183+48445458+48383298
3510.78+48354673+48334486+48319622+48331645+48389169+48474702+48535260+48525006
3503.07+48453554+48395889+48456100+48714975+49198148+49876156+50684610+51549922
3495.35+52413836+53253850+54094347+55001819+56063730+57358796+58932027+60784683
3487.64+62880428+65158822+67547869+69977217+72397802+74804510+77240852+79765138
3479.92+82393397+85069021+87698066+90226821+92686490+95153636+97662165
3473.17+100156356+102533798+104727945+106739941+108589593+110252780+111663091
3466.42+112777963+113628364+114291239+114813338+115170402+115303146+115187602
3459.66+114866205+114415669+113892630+113309538+112651602+111905559+111073923
3452.91+110174680+109240327+108320969+107479857+106772762+106219628+105788891
3446.16+105412140+105024272+104600293+104158730+103728445+103312311+102886435
3439.41+102438121+102002035+101651987+101449610+101396692+101431307+101464043
3432.66+101415986+101231870+100876541+100333755+99611092+98740107+97768984
3425.91+96757812+95776317+94888276+94117214+93416545+92684790+91832167+90850740
3418.19+89828784+88895029+88136101+87545113+87029389+86467266+85782763+84999568
3410.47+84238162+83646397+83300228+83145694+83029151+82793450+82366395+81783098
3402.76+81140602+80528424+79978178+79454447+78891333+78255878+77596130+77026112
3395.04+76644430+76447608+76316727+76097192+75709000+75201350+74719002+74412874
3387.33+74352616+74480883+74631306+74611217+74315369+73797329+73234625+72804896
3379.61+72571074+72469502+72400049+72320206+72259991+72258965+72303920+72330024
3371.89+72276046+72136594+71969995+71866731+71908319+72137278+72542740+73064915
3364.18+73620160+74139943+74599425+75014406+75412946+75812427+76227937+76697784
3356.46+77865806+78553350+79250097+79948177+80647103+81349054+82050116+82735550
3348.75+83383968+83979176+84520433+85023237+85510610+86001913+86505615+87018084
3341.03+87525571+88008518+88447501+88828259+89143120+89387357+89554614+89635927
3333.31+89624067+89520144+89338729+89109513+88873650+88673427+88537546+88468940
3325.60+88444262+88426557+88382885+88295257+88159565+87977782+87750566+87474123
3317.88+87140429+86740727+86272964+85751361+85210617+84698054+84255047+83898803
3310.17+83616994+83378900+83154735+82930706+82710642+82505540+82319399+82141657
3302.45+81952081+81734017+81486088+81222283+80960699+80710549+80469293+80231755
3294.73+80002078+79797412+79640562+79548218+79523378+79554524+79619440+79691208
3287.02+79745775+79769470+79762771+79735590+79696301+79641938+79557113+79423139
3279.30+79231632+78993914+78739995+78505618+78314205+78164679+78035310+77902548
3271.59+77762404+77637436+77564044+77568881+77651894+77786646+77936266+78073206
3263.87+78191330+78304344+78432312+78584821+78750343+78898793+78996067+79021710
3256.15+78980541+78902048+78828810+78799194+78831972+78920308+79038501+79158624
3248.44+79265905+79362812+79458737+79554089+79631343+79660745+79617073+79495761
3240.72+79317764+79120779+78943081+78810345+78731091+78700065+78703893+78725776
3233.01+78749309+78763092+78764168+78756692+78744652+78724170+78683086+78610447
3225.29+78510045+78406302+78335653+78327603+78388092+78497757+78625930+78749557
3217.57+78862366+78968339+79067887+79150481+79201246+79214986+79203792+79190052
3209.86+79189796+79200050+79201314+79173492+79113072+79037356+78972056+78931383
3202.14+78906773+78872919+78806465+78702517+78576541+78452085+78345360+78258014
3194.43+78181606+78108462+78040240+77988407+77966729+77981135+78024304+78079076
3186.71+78128141+78162474+78181769+78187707+78176513+78137703+78059671+77937505
3178.99+77777614+77596087+77412424+77242553+77094992+76972621+76877158+76812012
3171.28+76780131+76778525+76795546+76813849+76816806+76792427+76732306+76628793
3163.56+76476558+76278719+76052511+75827107+75632438+75486022+75387167+75323764
3155.85+75285987+75275964+75305051+75380655+75493960+75619176+75725286+75791073
3148.13+75812264+75797311+75757791+75701985+75634754+75560892+75486458+75416962
3140.41+75354346+75296950+75242613+75192703+75152559+75126942+75113979+75102768
3132.70+75078749+75033333+74970280+74903255+74846141+74804049+74771937+74741159
3124.98+74708381+74679867+74668904+74688010+74741706+74823659+74919567+75013287
3117.27+75091660+75145518+75167906+75153345+75099667+75010945+74898000+74775449
3109.55+74657018+74552130+74465493+74399296+74355948+74338833+74350095+74386359
3101.83+74436842+74486967+74525316+74548319+74558205+74556487+74539534+74500724
3094.12+74436774+74352231+74258691+74168978+74090810+74022921+73957229+73885982
3086.40+73810445+73743402+73701720+73693970+73712555+73738309+73753357+73752417
3078.69+73744342+73743975+73760928+73792578+73825108+73841830+73833294+73801388
3070.97+73753929+73694295+73616169+73508863+73368924+73206828+73043605+72900794
3063.25+72792506+72723788+72693855+72699862+72738562+72805836+72894856+72994677
3055.54+73091892+73175819+73243802+73301608+73357987+73418125+73481759+73546854
3047.82+73614221+73687433+73768362+73852264+73926997+73978010+73995757+73981428
3040.11+73946812+73908164+73877907+73859834+73850384+73844300+73839532+73838062
3032.39+73842514+73851708+73858134+73849581+73814461+73747803+73654339+73545982
3024.67+73435856+73333053+73241623+73163497+73102598+73067462+73070623+73124738
3016.96+73235983+73397985+73590962+73788288+73967799+74119991+74248027+74360212
3009.24+74461870+74551694+74624171+74674868+74704365+74719224+74729640+74744987
3001.53+74769348+74799306+74825018+74834306+74816943+74767579+74687463+74585275
2993.81+74476388+74379498+74310738+74277934+74279062+74305072+74345139+74390350
2986.09+74434390+74472329+74499442+74510978+74502792+74472970+74423794+74364023
2978.38+74309174+74278993+74292229+74360511+74483412+74647550+74830333+75007690
2970.66+75161557+75283560+75373238+75433334+75465933+75471162+75448066+75396822
2962.95+75321243+75230437+75137742+75055994+74991907+74943851+74904289+74864786
2955.23+74819301+74764162+74696589+74614037+74514284+74396289+74261579+74115035
2947.51+73965115+73821203+73690416+73575727+73477187+73394046+73324910+73266352
2939.80+73212904+73160285+73108973+73063788+73028557+73001009+72972221+72932385
2932.08+72877792+72814850+72758489+72725599+72726223+72756592+72798820+72828907
2924.37+72829941+72801452+72759070+72724181+72710851+72718533+72734341+72742783
2916.65+72736058+72719473+72708262+72717918+72753746+72806066+72853892+72875194
2908.93+72857352+72802238+72723514+72638092+72556830+72480396+72402570+72317839
2901.22+72227537+72140653+72068859+72020299+71994904+71982932+71967287+71929279
2893.50+71856614+71749709+71622703+71498127+71398464+71338369+71321027+71339078
2885.79+71380136+71434934+71502327+71586690+71688092+71793672+71878634+71918085
2878.07+71900611+71833790+71738763+71639421+71553293+71487737+71440646+71404151
2870.35+71369955+71333391+71294397+71254394+71212097+71160811+71089406+70986530
2862.64+70846202+70672336+70479201+70286297+70110392+69959717+69833813+69728369
2854.92+69641459+69576959+69543561+69549551+69595629+69670106+69750368+69811976
2847.21+69840234+69836564+69815625+69795023+69784244+69779429+69767043+69734380
2839.49+69680454+69619187+69571640+69551683+69555926+69565607+69559433+69527437
2831.77+69476194+69422634+69381807+69357288+69340659+69319464+69287694+69251088
2824.06+69223356+69216772+69233541+69263978+69291321+69299507+69279624+69231982
2816.34+69164042+69085433+69003202+68920308+68837436+68755824+68678549+68609780
2808.63+68553995+68514889+68494292+68490438+68497962+68510096+68522276+68533355
2800.91+68544202+68555097+68565120+68573516+68581842+68595125+68621362+68669372
2793.19+68744310+68842892+68951822+69052245+69128508+69176312+69204044+69227026
2785.48+69257210+69295769+69332354+69352105+69344697+69309992+69256958+69197550
2777.76+69141056+69091282+69047289+69005817+68964280+68923449+68887599+68862507
2770.05+68852595+68859866+68884937+68927507+68984553+69048549+69108304+69153053
2762.33+69176402+69177619+69160461+69131033+69095226+69056005+69012080+68960790
2754.61+68904137+68852137+68819060+68813946+68833950+68867091+68902368+68939714
2746.90+68991641+69076051+69203882+69369926+69552418+69722131+69855649+69943661
2739.18+69989120+69998181+69971714+69904782+69793122+69640678+69461791+69277146
2731.47+69106971+68966045+68862917+68801514+68782245+68800390+68844430+68897370
2723.75+68942670+68971069+68983591+68988018+68991530+68994648+68990953+68972560
2716.03+68937283+68892187+68849753+68819291+68800804+68786927+68771260+68755982
2708.32+68751761+68770940+68819705+68895007+68986369+69080182+69163790+69229115
2700.60+69274462+69303613+69322173+69333157+69335178+69323800+69295517+69251430
2692.89+69199524+69152779+69123740+69117429+69128051+69141906+69145734+69134314
2685.17+69112614+69091923+69083301+69092752+69119425+69156791+69194867+69223172
2677.45+69233678+69223586+69196290+69160047+69123808+69092957+69067314+69043273
2669.74+69018019+68992653+68971915+68960884+68961524+68970817+68981045+68981207
2662.02+68959482+68906363+68817800+68696967+68553354+68399833+68249388+68112820
2654.31+67997879+67908401+67843696+67799036+67768458+67748250+67738342+67739948
2646.59+67751279+67765890+67775982+67778161+67776648+67780823+67798553+67830344
2638.87+67868006+67899271+67915028+67914755+67906428+67900967+67904847+67916728
2631.16+67929776+67938014+67940744+67942325+67948379+67961683+67980217+67997973
2623.44+68007466+68003386+67985929+67962465+67945512+67947622+67975701+68028132
2615.73+68096512+68170322+68241817+68308040+68369900+68429539+68487503+68541635
2608.01+68587965+68623887+68652214+68683342+68732655+68813442+68929323+69072061
2600.29+69227256+69383849+69540720+69705247+69885445+70081925+70285861+70484362
2592.58+70669149+70842485+71016236+71204462+71414956+71644902+71883479+72118838
2584.86+72344516+72561393+72774912+72990276+73208247+73424414+73631123+73822169
2577.15+73997526+74165612+74340371+74533339+74745747+74965991+75176391+75364642
2569.43+75532019+75691731+75858825+76039574+76228809+76416966+76601057+76791162
2561.71+77007099+77267529+77578835+78059603+78397244+78757384+79138236+79535717
2554.00+79944597+80358065+80776703+81198058+81620088+82040119+82454664+82859527
2546.28+83250360+83623258+83975434+84305325+84612427+84896782+85158477+85397510
2538.57+85614020+85808757+85983311+86140177+86282347+86412442+86532130+86641726
2530.85+86740240+86825842+86896422+86949956+86984733+86999277+86992210+86962226
2523.13+86908189+86829422+86726252+86600326+86454995+86295002+86126138+85954105
2515.42+85783917+85619130+85462032+85313950+85175754+85047966+84930662+84822835
2507.70+84722211+84625252+84527909+84426251+84317023+84197651+84065761+83918713
2499.99+83753541+83567195+83357248+83122025+82862330+82576573+82256116+81907836
2492.27+81539826+81287335+80867398+80333319+79854842+79443023+79056761+78631800
2484.55+78125706+77549723+76960009+76413454+75926193+75470906+75014432+74558666
2476.84+74144489+73814504+73571070+73371906+73171230+72969290+72823335+72807852
2469.12+72958481+73247083+73605386+73970806+74316745+74651105+74995855+75368223
2461.41+75771898+76196646+76625256+77047081+77470982+77923535+78428347+78980883
2453.69+79542664+80062294+80507899+80885513+81233750+81603750+82039521+82563773
2445.97+83167168+83802947+83999017+84400694+84787100+85151393+85485565+85784327
2438.26+86058386+86308494+86541350+86762789+86975761+87179838+87372764+87552752
2430.54+87720086+87877132+88026915+88171169+88309390+88439195+88558054+88664924
2422.83+88760960+88848946+88931404+89009051+89080367+89142522+89193492+89233858
2415.11+89267029+89297859+89330201+89364671+89397680+89422519+89431859+89420529
2407.39+89387289+89334738+89267328+89188929+89101165+89003386+88894089+88772726
2399.68+88640606+88500573+88355515+88207066+88055155+87898699+87736877+87570141
2391.96+87400654+87231791+87067354+86910556+86763268+86625781+86496857+86374298
2384.25+86255533+86137811+86018174+85893026+85758547+85611080+85448318+85270115
2376.53+85078676+84878206+84673676+84469668+84269513+84074896+83885567+83699725
2368.81+83514695+83327802+83137192+82941968+82741745+82535934+82323372+82102830
2361.10+81873845+81637537+81397042+81156752+80921179+80693391+80473899+80260833
2353.38+80050570+79839111+79623293+79401443+79173535+78940859+78706004+78472635
2345.67+78245188+78027927+77823876+77633745+77456191+77289045+77131162+76983379
2337.95+76847934+76726777+76619590+76523187+76432304+76342002+76249957+76157750
2330.23+76069900+75991082+75922501+75859628+75792423+75708957+75601241+75469718
2322.52+75324020+75178937+75047167+74933666+74834648+74742047+74650002+74559239
2314.80+74476183+74407833+74356085+74315463+74275892+74228322+74169124+74101038
2307.09+74030304+73962800+73901832+73848735+73804276+73769481+73744547+73726817
2299.37+73709727+73683973+73640642+73574513+73485587+73378101+73257884+73130053
2291.65+72998300+72865521+72735255+72612149+72501297+72406424+72328281+72263665
2283.94+72206021+72147301+72080070+71999449+71904123+71796586+71682384+71568456
2276.22+71461038+71363461+71275269+71192508+71109452+71020846+70923593+70817094
2268.51+70702247+70579782+70449431+70309808+70159683+69998985+69829250+69652995
2260.79+69472455+69288450+69099908+68904295+68698710+68481376+68252806+68016413
2253.07+67778229+67545715+67325997+67123805+66940142+66772265+66615006+66462929
2245.36+66312646+66163940+66019413+65882960+65757628+65644294+65541926+65448984
2237.64+65365215+65292502+65233692+65190524+65161074+65139007+65114876+65078932
2229.93+65024318+64948880+64855040+64748452+64635920+64524077+64418659+64324430
2222.21+64244951+64182492+64137811+64110288+64098197+64099094+64110262+64129117
2214.49+64153615+64182586+64215843+64253923+64296976+64344020+64392050+64436458
2206.78+64472009+64494259+64500429+64489624+64462537+64420791+64366497+64301996
2199.06+64229698+64152008+64071383+63990532+63912039+63837788+63768037+63701173
2191.35+63634818+63567587+63501117+63440308+63391841+63361426+63351356+63360029
2183.63+63383284+63416408+63455607+63498109+63541278+63582357+63619104+63650964
2175.91+63679662+63708445+63740283+63776201+63815059+63854878+63894834+63936511
2168.20+63983764+64040878+64110766+64194331+64291516+64403543+64534057+64688881
2160.48+64873416+65089737+65335098+65602595+65883806+66171673+66461416+66749463
2152.77+67030952+67298359+67542114+67753479+67927781+68066097+68174749+68263102
2145.05+68341160+68417957+68501747+68600398+68721922+68873491+69059722+69281021
2137.33+69532619+69805828+70090504+70378256+70664744+70949650+71234668+71520515
2129.62+71804986+72083309+72350617+72604767+72847287+73081774+73310828+73533225
2121.90+73743727+73935294+74102534+74243848+74361588+74460033+74542910+74612268
2114.19+74668741+74713243+74748063+74776919+74803519+74829692+74853959+74871579
2106.47+74875638+74859035+74816114+74743748+74641517+74511140+74355760+74179079
2098.75+73984726+73776112+73556757+73331053+73104897+72885704+72681423+72497922
2091.04+72336766+72193913+72060827+71927604+71786520+71634328+71472138+71302997
2083.32+71129178+70950449+70764774+70570216+70367131+70159158+69952650+69755093
2075.61+69572695+69408300+69259987+69120988+68981434+68831288+68663570+68476536
2067.89+68273540+68060820+67844751+67629895+67419055+67214863+67021134+66842658
2060.17+66683292+66544084+66422584+66314342+66215115+66122425+66035468+65953630
2052.46+65875116+65797106+65717352+65636129+65556948+65485039+65424738+65377395
2044.74+65340969+65311792+65286564+65263646+65242728+65223233+65202909+65177335
2037.03+65140588+65087007+65012210+64913624+64790035+64640992+64466758+64268829
2029.31+64050559+63817443+63576397+63334381+63096497+62864786+62638301+62414592
2021.59+62192170+61972430+61760347+61563064+61387523+61237971+61114912+61016189
2013.88+60939922+60887192+60863313+60876156+60932514+61034355+61176777+61349220
2006.16+61538890+61735072+61932035+62129250+62328900+62532216+62737254+62938622
1998.45+63129852+63306905+63470885+63628393+63789506+63964086+64158182+64372735
1990.73+64604655+64850041+65107194+65377395+65663285+65965119+66278146+66592460
1983.01+66896217+67180137+67440592+67679211+67899707+68103527+68288083+68448073
1975.30+68579574+68683778+68768368+68845554+68927900+69024329+69138258+69268430
1967.58+69411214+69563060+69721649+69885787+70053757+70221868+70383669+70530649
1959.87+70654789+70751333+70820854+70869389+70906089+70939922+70976669+71017864
1952.15+71061926+71106517+71150762+71195883+71244004+71296644+71353463+71412226
1944.43+71470143+71524988+71575864+71622771+71665688+71703644+71734730+71756588
1936.72+71767363+71765987+71751931+71724792+71684059+71629329+71560838+71479619
1929.00+71387476+71286322+71177901+71063763+70945818+70826588+70709262+70596987
1921.29+70492022+70395525+70307445+70227371+70154685+70088761+70028434+69971641
1913.57+69915493+69857025+69794566+69728254+69659694+69589990+69517687+69437934
1905.85+69343894+69229482+69092337+68934459+68760340+68573768+68375224+68162295
1898.14+67932370+67686090+67429168+67170895+66920647+66684275+66462519+66251931
1890.42+66047282+65843688+65637599+65426319+65207293+64977804+64735399+64479050
1882.71+64209835+63931261+63648695+63368650+63097257+62838707+62593919+62360162
1874.99+62131822+61902375+61666281+61419775+61160973+60888935+60603319+60304441
1867.27+59994033+59675545+59353139+59030109+58707242+58382653+58053296+57716898
1859.56+57373592+57025838+56677349+56331637+55991223+55657483+55331039+55011936
1851.84+54699938+54394255+54093818+53797465+53504236+53213617+52925775+52641812
1844.13+52364498+52098702+51850794+51627039+51430785+51260520+51109110+50965548
1836.41+50818102+50657980+50481657+50291645+50095024+49900723+49716650+49547671
1828.69+49394906+49256411+49128627+49008089+48892140+48778809+48665774+48549252
1820.98+48423553+48282396+48121031+47938885+47740913+47536884+47338566+47155916
1813.26+46994414+46854313+46731873+46621752+46518829+46419307+46320858+46222549
1805.55+46124698+46028521+45935280+45844862+45755060+45662028+45562135+45454076
1797.83+45339755+45222981+45106942+44991890+44875137+44753108+44624337+44491302
1790.11+44359596+44235021+44120772+44016064+43917268+43820404+43723219+43625436
1782.40+43527678+43429806+43330348+43227472+43120815+43013009+42909766+42818567
1774.68+42746179+42696794+42671471+42668972+42687574+42726680+42787464+42872656
1766.97+42985623+43129646+43307640+43522769+43779371+44083679+44444212+44871420
1759.25+45377442+45975834+46681527+47511057+48455024+49559232+50845535+52337065
1751.53+54058745+54461964+56623264+59104633+61921025+65096090+68663612+72664863
1743.82+77156369+82226986+88002331+94618848+102182647+110756439+120395364
1737.07+131193030+143273407+156702443+171369491+186928690+202848686+218528675
1730.31+233402201+246998511+258986167+269212679+277721778+284720472+290500995
1723.56+295348352+299474387+303004299+306012770+308575951+310791289+312751444
1716.81+314500370+316018858+317255469+318174621+318786159+319141557+319311531
1710.06+319361604+319336789+319253631+319099995+318835070+318397027+317724342
1703.31+316791347+315635912+314351143+313032706+311717244+310361176+308877961
1696.56+307198282+305303205+303211973+300941572+298472418+295744457+292684272
1689.81+289240664+285399770+281164225+276515535+271398930+265743350+259491493
1683.05+252603677+245039758+236759046+227752004+218079729+207882543+197364089
1676.30+186778471+176419942+166584751+157497575+149250479+141811306+135095233
1669.55+129037327+123612586+118809354+114601691+110950356+107817199+105171687
1662.80+102984633+101226180+99876469+98936587+98424648+98360886+98760708
1656.05+99649578+101090137+103191734+106078612+109826905+114421035+119767634
1649.30+125746132+132238912+139107767+146143793+153050886+159499993+165223231
1642.54+170079441+174051788+177196925+179597481+181347962+182560306+183355011
1635.79+183830549+184039625+184007752+183788902+183520986+183441878+183859807
1629.04+185097152+187438476+191100525+196220258+202837219+210859039+220029288
1622.29+229942408+240126930+250162122+259756110+268747326+277053570+284622992
1615.54+291415533+297404619+302576338+306922386+310436370+313116275+314965859
1608.79+315992267+316202846+315607851+314224952+312084296+309230590+305716058
1602.04+301578607+296808222+291327145+285011714+277756196+269547876+260508894
1595.28+250884880+240990985+231146583+221625090+212631036+204297808+196697607
1588.53+189854071+183753355+178350600+173573362+169327511+165511876+162038770
1581.78+158846551+155896134+153158176+150605897+148218859+145987781+143909041
1575.03+141970539+140141813+138377763+136631443+134869299+133084245+131301917
1568.28+129572294+127947457+126458679+125107166+123869119+122704337+121562668
1561.53+120396509+119187703+117972779+116832811+115838113+114989063+114209396
1554.78+113400575+112510766+111561569+110616757+109725845+108891910+108083046
1548.02+107266996+106436206+105607227+104803703+104040947+103322249+102643001
1541.27+101993182+101356531+100713574+100053296+99385106+98736372+98132884
1534.52+97577708+97047167+96507354+95935140+95325969+94688788+94042806+93422296
1526.80+92875015+92437758+92099040+91782641+91379102+90814365+90106791+89364833
1519.09+88721671+88253627+87939338+87681412+87370422+86948349+86435265+85907911
1511.37+85446618+85082829+84777692+84445998+84011125+83456180+82833730+82227217
1503.66+81696257+81249575+80858537+80487639+80113144+79720867+79297119+78828742
1495.94+78311548+77755842+77180714+76605919+76048316+75519603+75019593+74528665
1488.22+74013445+73449485+72846689+72256393+71757434+71436241+71378051+71668277
1480.51+72393649+73640685+75500659+78084716+81530607+85972707+91466636+97899908
1472.79+104948530+112122735+118887617+124790126+129523187+132918954+134913595
1466.04+135528688+134876049+133161012+130659370+127669296+124457988+121226411
1459.29+118101003+115948162+113294833+110767496+108401872+106213826+104207059
1452.54+102380162+100730322+99253404+97941659+96781712+95754852+94840613
1445.79+94021401+93285911+92628599+92045344+91528150+91062362+90628822+90209637
1438.07+89793528+89377608+88964806+88558815+88159727+87762400+87358613+86942043
1430.35+86513622+86084345+85673150+85299655+84975437+84698311+84453518+84221483
1422.64+83987405+83746842+83504484+83267629+83039405+82816342+82591091+82358697
1414.92+82121107+81887422+81668623+81471040+81293367+81129571+80975268+80832458
1407.21+80708250+80609002+80533995+80473583+80412889+80338942+80246230+80137522
1399.49+80019210+79894524+79759037+79601820+79411766+79184772+78927418+78654692
1391.77+78383888+78128235+77893491+77678614+77479083+77290558+77110706+76938860
1384.06+76774261+76615326+76460289+76308883+76163415+76027971+75906215+75799165
1376.34+75704736+75619587+75542221+75474854+75422166+75387987+75372093+75370376
1368.63+75377784+75391200+75409896+75433266+75458619+75480912+75494815+75497199
1360.91+75488500+75471923+75450339+75422927+75383860+75324499+75238623+75126617
1353.19+74995624+74854993+74709756+74557248+74388744+74195570+73975438+73734934
1345.48+73486433+73241896+73008032+72786336+72576893+72382643+72210037+72065809
1337.76+71952701+71867671+71803542+71753007+71711351+71676236+71645018+71612381
1330.05+71570267+71511295+71432802+71338873+71238501+71140466+71048946+70962220
1322.33+70875836+70787204+70698530+70615795+70545240+70489386+70444795+70402524
1314.61+70350934+70280059+70185741+70070757+69942055+69806012+69665659+69521819
1306.90+69376625+69235720+69107039+68997238+68908012+68834386+68766215+68692400
1299.18+68606593+68509728+68407425+68303955+68198328+68087151+67970582+67855462
1291.47+67750937+67660951+67580348+67497774+67402721+67290305+67161744+67021501
1283.75+66874496+66725311+66579429+66444651+66330603+66244749+66187545+66150546
1276.03+66119763+66081893+66028910+65958103+65869771+65765635+65649113+65526054
1268.32+65403820+65289499+65188575+65104396+65037648+64985716+64942616+64901216
1260.60+64856625+64808364+64759735+64714503+64673539+64633857+64591214+64543802
1252.89+64494007+64446387+64403359+64361955+64315074+64255803+64181898+64097257
1245.17+64010164+63929885+63864307+63818729+63794851+63789506+63793612+63793406
1237.45+63774322+63725992+63645094+63534626+63400578+63249146+63086038+62917380
1229.74+62750097+62591278+62446798+62320710+62215634+62133334+62074567+62037593
1222.02+62015962+61997958+61969811+61921691+61852465+61768631+61677842+61582055
1214.31+61476432+61353899+61210794+61048027+60868521+60673921+60464525+60241295
1206.59+60007978+59771700+59542258+59330153+59144247+58989624+58867163+58775413
1198.87+58712241+58674968+58658891+58657011+58662010+58668637+58673870+58674763
1191.16+58667171+58647309+58615471+58577920+58545488+58529522+58538400+58575767
1183.44+58640746+58729173+58836287+58960426+59106445+59286711+59518127+59816864
1175.73+60194089+60655844+61208038+61863360+62644748+63581234+64696683+65997555
1168.01+67468256+69078004+70795416+72600708+74486249+76445566+78458528+80484614
1160.29+82469412+84360533+86121302+87733912+89190279+90478697+91576411+92453105
1152.58+93082920+93456543+93586143+93501019+93237009+92826429+92293572+91656622
1144.86+90932813+90141996+89306779+88450184+87593169+86753296+85943441+85171345
1137.15+84440265+83751729+83107832+82510581+81959028+81447158+80965518+80504319
1129.43+80054082+79602948+79135963+78640123+78113256+77568881+77031230+76523256
1121.71+76055793+75625414+75221328+74836895+74477516+74158776+73894373+73681102
1114.00+73493363+73294379+73057661+72782713+72493470+72221667+71988418+71795074
1106.28+71624809+71450097+71243662+70991324+70702794+70411607+70160875+69980656
1098.57+69871841+69807020+69748646+69672426+69582303+69506519+69476493+69500760
1090.85+69552461+69581411+69544317+69431880+69272625+69111833+68982536+68889825
1083.13+68817915+68750663+68688615+68650244+68657400+68716898+68811857+68908700
1075.42+68975333+68996802+68979071+68939966+68895926+68854017+68812912+68769171
1067.70+68722585+68677169+68638726+68612578+68602876+68612924+68643912+68691806
1059.99+68744767+68784266+68791149+68753346+68671162+68556866+68429791+68309279
1052.27+68209522+68138185+68098644+68092953+68123116+68189796+68290309+68417269
1044.55+68559045+68701346+68829703+68932348+69001459+69031874+69018595+68956731
1036.84+68845532+68693387+68518444+68342834+68185118+68056185+67960149+67896887
1029.12+67863857+67856906+67871975+67906611+67960102+68031734+68119147+68217576
1021.41+68319806+68415731+68493168+68541656+68558032+68549889+68533607+68528053
1013.69+68547347+68596223+68669901+68757794+68849659+68941064+69034903+69138031
1005.97+69255467+69385387+69517299+69633752+69715595+69749449+69735252+69687837
998.26+69630749+69583863+69553148+69529296+69496176+69443142+69372057+69294530
990.54+69221130+69151446+69073436+68973799+68851450+68722747+68613360+68542045
982.83+68508468+68494407+68476950+68444287+68402516+68368824+68356160+68360932
975.11+68362770+68336917+68269208+68163833+68039168+67917275+67814173+67736184
967.39+67681642+67645263+67622051+67608631+67602073+67598125+67591840+67580783
959.68+67567342+67556610+67551150+67547757+67539704+67522824+67498830+67474080
951.96+67455409+67447496+67452405+67469401+67493989+67517915+67531403+67526331
944.25+67497249+67439558+67347808+67216679+67045038+66838898+66610511+66373567
936.53+66137908+65908236+65688586+65489282+65330142+65234611+65216398+65267064
928.81+65355213+65439922+65491187+65502885+65490179+65474008+65465198+65459259
921.10+65443614+65409644+65360169+65307733+65266859+65246057+65244036+65250641
913.38+65250850+65230390+65181141+65105011+65014179+64926834+64859240+64818067
905.67+64797401+64782857+64760701+64726594+64688403+64660371+64652228+64660717
897.95+64670715+64666451+64644982+64620574+64614541+64637112+64675902+64701660
890.23+64687023+64623855+64526004+64415882+64306931+64194993+64064321+63902977
882.52+63715947+63527149+63368467+63263780+63218505+63220543+63249676+63286560
874.80+63315942+63325918+63307820+63258324+63179831+63076566+62949859+62798816
867.09+62627568+62452117+62298276+62189141+62131407+62111981+62108815+62108195
859.37+62114365+62142439+62199946+62271351+62319791+62305778+62208866+62037136
851.65+61818862+61585131+61355915+61136795+60924533+60715231+60510949+60322817
843.94+60169364+60070689+60040572+60080917+60180900+60320177+60473330+60614739
836.22+60723831+60790579+60817692+60816910+60800325+60771700+60723212+60639583
828.51+60507095+60323804+60106124+59887235+59705225+59585012+59524937+59498491
820.79+59472754+59431145+59383986+59360039+59385135+59463167+59570721+59666624
813.07+59710250+59678963+59576271+59426996+59262303+59103189+58951433+58792823
805.36+58609370+58393022+58152387+57908999+57685428+57493028+57327834+57177180
797.64+57032238+56897093+56789539+56734074+56752518+56855274+57036365+57275053
789.93+57545143+57827503+58115550+58408232+58694809+58945861+59119681+59181242
782.21+59120232+58956846+58732659+58492754+58268105+58067058+57879844+57693250
774.49+57504956+57326916+57176172+57061965+56979461+56912896+56843649+56757013
766.78+56647049+56519837+56392741+56286567+56213325+56168003+56131854+56084900
759.06+56017396+55931883+55835984+55733429+55620945+55492405+55346638+55191899
751.35+55043497+54915550+54813619+54734485+54672394+54624726+54589449+54556696
743.63+54504970+54409345+54257981+54062851+53854878+53666793+53516827+53405602
735.91+53326332+53279083+53276259+53334428+53457559+53625026+53795196+53924677
728.20+53990143+53997436+53972596+53943304+53925228+53920891+53927706+53946996
720.48+53987712+54063265+54183205+54342733+54517382+54667963+54755702+54758017
712.77+54674526+54521761+54323401+54102926+53879974+53666011+53461298+53257725
705.05+53049821+52845633+52667020+52537629+52467510+52446199+52447669+52442324
697.33+52409205+52343580+52256576+52166138+52084317+52010690+51937841+51863039
689.62+51793104+51736357+51690390+51639860+51567058+51464734+51338509+51199279
681.90+51056127+50917376+50797026+50716769+50699013+50756289+50785948+50834756
674.19+50894878+50960109+51026148+51087090+51132164+51146566+51118471+51047685
666.47+50949193+50847257+50762642+50702089+50656878+50611210+50553750+50484639
658.75+50413397+50350754+50300293+50255518+50204184+50137069+49958802+49788375
651.04+49694330+49731970+49907328+50167070+50426470+50619973+50738306+50824549
643.32+50933526+51087000+51258572+51396358+51463952+51469228+51463149+51510560
635.61+51652567+51884581+52162878+52433194+52659517+52834875+52973370+53097163
627.89+53228275+53384433+53574013+53793064+54032735+54294933+54602663+54991497
620.17+55487517+56088156+56764147+57482064+58231636+59036646+59937743+60953914
612.46+62050257+63141802+64140037+65010971+65802882+66620329+67564958+68683800
604.74+69680386+70514572+71174940+71695731+72149890
##END=